20 64 
1 5 1
1 6 1
1 7 1
2 5 1
2 6 1
2 8 1
2 12 1
2 15 1
2 17 1
2 18 1
2 19 1
2 20 1
3 5 1
3 6 1
3 7 1
3 8 1
3 9 1
3 12 1
3 13 1
3 14 1
3 15 1
3 17 1
4 5 1
4 7 1
4 8 1
4 10 1
4 16 1
4 18 1
5 6 1
5 7 1
5 9 1
5 10 1
5 11 1
5 12 1
5 13 1
5 15 1
5 16 1
6 9 1
6 11 1
6 14 1
6 16 1
7 8 1
7 12 1
7 17 1
7 18 1
8 9 1
8 10 1
8 13 1
8 19 1
9 10 1
9 11 1
9 14 1
9 18 1
10 11 1
10 13 1
10 15 1
10 20 1
12 14 1
13 16 1
13 20 1
14 20 1
15 17 1
17 19 1
18 19 1
